
Gurobi 11.0.1 (win64) logging started Fri Mar 15 23:29:30 2024

Set parameter LogFile to value "res/logfile/neos-4532248-waihilog.txt"
Gurobi Optimizer version 11.0.1 build v11.0.1rc0 (win64 - Windows 11.0 (22621.2))

CPU model: AMD Ryzen Threadripper PRO 5975WX 32-Cores, instruction set [SSE2|AVX|AVX2]
Thread count: 32 physical cores, 64 logical processors, using up to 10 threads

Optimize a model with 170391 rows, 86842 columns and 615155 nonzeros
Model fingerprint: 0x9f15373e
Variable types: 1 continuous, 86841 integer (86841 binary)
Coefficient statistics:
  Matrix range     [1e+00, 6e+02]
  Objective range  [1e+00, 1e+00]
  Bounds range     [1e+00, 1e+00]
  RHS range        [1e+00, 6e+02]
Presolve removed 86765 rows and 580 columns
Presolve time: 1.80s
Presolved: 83626 rows, 86262 columns, 352887 nonzeros
Crushed 2877 out of 2913 user cuts to presolved model
Variable types: 0 continuous, 86262 integer (86261 binary)
Deterministic concurrent LP optimizer: primal and dual simplex
Showing primal log only...

Concurrent spin time: 0.05s

Solved with primal simplex

Use crossover to convert LP symmetric solution to basic solution...

Root relaxation: objective 7.500000e+00, 4016 iterations, 0.56 seconds (0.81 work units)
Total elapsed time = 6.11s (DegenMoves)

    Nodes    |    Current Node    |     Objective Bounds      |     Work
 Expl Unexpl |  Obj  Depth IntInf | Incumbent    BestBd   Gap | It/Node Time

     0     0    7.50000    0  305          -    7.50000      -     -    8s
     0     0   15.00000    0  478          -   15.00000      -     -   11s
     0     0   15.00000    0  525          -   15.00000      -     -   14s
     0     0   15.00000    0  619          -   15.00000      -     -   17s
     0     0   15.00000    0  591          -   15.00000      -     -   19s
     0     0   15.00000    0  487          -   15.00000      -     -   31s
     0     0   15.00000    0  688          -   15.00000      -     -   35s
     0     0   15.00000    0  308          -   15.00000      -     -   48s
     0     0   15.00000    0  525          -   15.00000      -     -   54s
     0     0   15.00000    0  511          -   15.00000      -     -   73s
     0     0   15.00000    0  612          -   15.00000      -     -   80s
     0     0   15.00000    0  329          -   15.00000      -     -   94s
     0     0   15.00000    0  181          -   15.00000      -     -   97s
H    0     0                      90.1000000   15.00000  83.4%     -   99s
H    0     0                      65.5000000   15.00000  77.1%     -  101s
     0     0   15.21803    0  762   65.50000   15.21803  76.8%     -  103s
     0     0   18.91783    0  700   65.50000   18.91783  71.1%     -  104s
     0     0   19.42928    0  663   65.50000   19.42928  70.3%     -  105s
     0     0   19.42928    0  572   65.50000   19.42928  70.3%     -  105s
     0     0   22.62958    0  626   65.50000   22.62958  65.5%     -  105s
     0     0   22.74030    0  588   65.50000   22.74030  65.3%     -  105s
     0     0   22.78711    0  638   65.50000   22.78711  65.2%     -  105s
     0     0   22.79179    0  625   65.50000   22.79179  65.2%     -  105s
     0     0   22.80103    0  696   65.50000   22.80103  65.2%     -  105s
     0     0   22.80109    0  689   65.50000   22.80109  65.2%     -  105s
     0     0   23.13393    0  723   65.50000   23.13393  64.7%     -  105s
     0     0   23.44403    0  661   65.50000   23.44403  64.2%     -  106s
     0     0   23.44403    0  747   65.50000   23.44403  64.2%     -  106s
     0     0   23.44403    0  776   65.50000   23.44403  64.2%     -  106s
     0     0   23.78501    0  778   65.50000   23.78501  63.7%     -  106s
     0     0   23.78501    0  790   65.50000   23.78501  63.7%     -  106s
     0     0   23.78501    0  786   65.50000   23.78501  63.7%     -  106s
     0     0   23.78501    0  887   65.50000   23.78501  63.7%     -  106s
     0     0   23.78501    0  949   65.50000   23.78501  63.7%     -  107s
     0     0   23.78501    0  898   65.50000   23.78501  63.7%     -  107s
     0     0   23.78501    0  844   65.50000   23.78501  63.7%     -  107s
     0     0   23.78501    0  784   65.50000   23.78501  63.7%     -  107s
     0     0   23.78501    0  867   65.50000   23.78501  63.7%     -  107s
     0     0   23.78501    0  892   65.50000   23.78501  63.7%     -  107s
     0     0   23.78501    0  881   65.50000   23.78501  63.7%     -  107s
     0     0   23.78501    0  847   65.50000   23.78501  63.7%     -  107s
     0     0   23.78501    0  918   65.50000   23.78501  63.7%     -  107s
     0     0   23.78501    0  932   65.50000   23.78501  63.7%     -  107s
     0     0   23.78501    0  969   65.50000   23.78501  63.7%     -  108s
     0     0   23.78501    0  984   65.50000   23.78501  63.7%     -  108s
     0     0   23.96803    0  715   65.50000   23.96803  63.4%     -  108s
     0     0   24.04608    0  733   65.50000   24.04608  63.3%     -  108s
     0     0   24.04608    0  670   65.50000   24.04608  63.3%     -  108s
     0     0   24.04608    0  771   65.50000   24.04608  63.3%     -  108s
     0     0   24.04608    0  738   65.50000   24.04608  63.3%     -  108s
     0     0   24.04608    0  818   65.50000   24.04608  63.3%     -  108s
     0     0   24.04608    0  808   65.50000   24.04608  63.3%     -  109s
     0     0   24.04608    0  841   65.50000   24.04608  63.3%     -  109s
     0     0   24.04608    0  844   65.50000   24.04608  63.3%     -  109s
     0     0   24.04718    0  876   65.50000   24.04718  63.3%     -  109s
     0     0   24.07151    0  877   65.50000   24.07151  63.2%     -  109s
     0     0   24.07156    0  911   65.50000   24.07156  63.2%     -  109s
     0     0   24.08846    0  759   65.50000   24.08846  63.2%     -  109s
     0     0   24.18940    0  872   65.50000   24.18940  63.1%     -  109s
     0     0   24.20355    0  914   65.50000   24.20355  63.0%     -  109s
     0     0   24.20832    0  914   65.50000   24.20832  63.0%     -  109s
     0     0   24.21202    0  892   65.50000   24.21202  63.0%     -  109s
     0     0   24.21236    0  914   65.50000   24.21236  63.0%     -  109s
     0     0   24.26741    0  898   65.50000   24.26741  63.0%     -  110s
     0     0   24.27073    0  956   65.50000   24.27073  62.9%     -  110s
     0     0   24.27183    0  926   65.50000   24.27183  62.9%     -  110s
     0     0   24.39163    0  936   65.50000   24.39163  62.8%     -  110s
     0     0   24.41519    0  759   65.50000   24.41519  62.7%     -  110s
     0     0   24.41651    0  816   65.50000   24.41651  62.7%     -  110s
     0     0   24.53823    0  759   65.50000   24.53823  62.5%     -  110s
     0     0   24.64822    0  738   65.50000   24.64822  62.4%     -  110s
     0     0   24.65394    0  732   65.50000   24.65394  62.4%     -  110s
     0     0   24.65536    0  764   65.50000   24.65536  62.4%     -  110s
     0     0   24.66618    0  950   65.50000   24.66618  62.3%     -  110s
     0     0   24.68075    0  995   65.50000   24.68075  62.3%     -  111s
     0     0   24.68075    0 1000   65.50000   24.68075  62.3%     -  111s
     0     0   24.68075    0  976   65.50000   24.68075  62.3%     -  111s
     0     0   24.69982    0  991   65.50000   24.69982  62.3%     -  111s
     0     0   24.69982    0 1008   65.50000   24.69982  62.3%     -  111s
     0     0   24.69982    0  960   65.50000   24.69982  62.3%     -  111s
     0     0   24.69982    0  816   65.50000   24.69982  62.3%     -  111s
     0     2   25.34888    0  771   65.50000   25.34888  61.3%     -  112s
    45    48   30.15341    7  386   65.50000   28.05768  57.2%  1395  115s
H  246   162                      65.1000000   28.38102  56.4%   826  118s
*  275   163              26      61.6000000   28.38102  53.9%   818  118s
   319   161   39.62542    6  290   61.60000   29.00323  52.9%   820  120s

Cutting planes:
  Gomory: 4
  Cover: 230
  Implied bound: 6
  Clique: 69
  MIR: 86
  StrongCG: 28
  GUB cover: 5
  Inf proof: 6
  Zero half: 6
  Mod-K: 7
  RLT: 24
  Relax-and-lift: 201

Explored 494 nodes (842668 simplex iterations) in 121.00 seconds (204.61 work units)
Thread count was 10 (of 64 available processors)

Solution count 4: 61.6 65.1 65.5 90.1 

Optimal solution found (tolerance 1.00e-04)
Best objective 6.160000000000e+01, best bound 6.160000000000e+01, gap 0.0000%

User-callback calls 5664, time in user-callback 0.00 sec
